; benchmark generated from python API
(set-info :status unknown)
(declare-fun S_3 () Real)
(declare-fun S_4 () Real)
(declare-fun C () Real)
(declare-fun S_0 () Real)
(declare-fun S_1 () Real)
(declare-fun S_2 () Real)
(declare-fun A_0 () Real)
(declare-fun L_0 () Real)
(declare-fun L0 () Real)
(declare-fun A_4 () Real)
(declare-fun L_4 () Real)
(declare-fun B () Real)
(declare-fun A_3 () Real)
(declare-fun L_3 () Real)
(declare-fun L_1 () Real)
(declare-fun A_1 () Real)
(declare-fun A_2 () Real)
(declare-fun L_2 () Real)
(assert
 (let (($x37 (>= L0 0.0)))
 (let (($x767 (>= C 5.0)))
 (let ((?x215 (* (- 1.0) C)))
 (let ((?x235 (* (- 1.0) L_4)))
 (let ((?x531 (* (- 1.0) B)))
 (let ((?x6625 (+ ?x531 ?x235 A_4 ?x215)))
 (let (($x6626 (<= (+ A_3 (* (- 1.0) L_0)) ?x6625)))
 (let (($x4402 (= L_4 L_0)))
 (let (($x2299 (not (= L_0 L_3))))
 (let (($x1481 (= L_4 L_1)))
 (let (($x1474 (not (= L_1 L_3))))
 (let ((?x481 (* (- 1.0) L_1)))
 (let ((?x815 (+ A_1 ?x481 ?x531)))
 (let (($x833 (<= S_1 ?x815)))
 (let (($x10306 (or $x833 $x1474 $x1481 (<= S_1 (+ ?x531 ?x235 A_4 (* (- 3.0) C))) $x6626)))
 (let (($x6834 (<= (+ A_1 (* (- 1.0) L_0) L_4 (* (- 1.0) A_4) (* 3.0 C)) 0.0)))
 (let (($x10247 (or (not $x6626) (= (+ A_4 ?x235 ?x531) (+ A_3 (* (- 1.0) L_0) C)))))
 (let (($x1434 (not (= L_1 L_4))))
 (let (($x6898 (<= (+ A_2 (* (- 1.0) L_0) L_4 (* (- 1.0) A_4) (* 2.0 C)) 0.0)))
 (let (($x413 (<= (+ A_2 (* (- 1.0) A_1) ?x215) 0.0)))
 (let (($x10574 (or $x413 $x2299 $x4402 (not (= (+ A_1 (* (- 1.0) L_0) (* 3.0 C)) (+ A_4 ?x235))))))
 (let (($x6886 (<= (+ A_4 (* (- 1.0) L_2) (* (- 1.0) A_1) L_0 (* (- 3.0) C)) 0.0)))
 (let (($x1356 (not (= L_2 L_4))))
 (let (($x538 (= L_2 L_0)))
 (let (($x10336 (or $x538 $x1356 (<= (+ A_4 (* (- 1.0) A_2) (* (- 2.0) C)) 0.0) $x6886)))
 (let (($x530 (not (= L_0 L_1))))
 (let (($x10165 (or $x530 $x538 (<= S_4 (+ A_2 (* (- 1.0) L_2) ?x531 (* 2.0 C))))))
 (let (($x1253 (= L_4 L_2)))
 (let (($x8246 (or $x530 $x538 $x1253 (= (+ A_4 ?x235) (+ A_2 (* (- 1.0) L_2) (* 2.0 C))))))
 (let (($x6789 (or $x530 $x538 (<= (+ A_1 (* (- 1.0) L_0) L_2 (* (- 1.0) A_2) C) 0.0))))
 (let (($x10571 (or $x1434 (<= (+ ?x531 ?x481 A_4 (* (- 4.0) C)) (+ A_0 (* (- 1.0) L_0))))))
 (let ((?x475 (* (- 1.0) L_0)))
 (let ((?x737 (+ A_0 ?x475)))
 (let ((?x1102 (* (- 2.0) C)))
 (let ((?x315 (* (- 1.0) L_2)))
 (let ((?x6541 (+ ?x531 ?x315 A_2 ?x1102)))
 (let (($x54 (= L_1 L_0)))
 (let (($x10211 (or $x54 $x1356 (<= (+ A_4 ?x315 (* (- 1.0) A_1) L_1 (* (- 3.0) C)) 0.0))))
 (let (($x10168 (or $x1481 (= (+ A_4 ?x235 ?x531) (+ A_3 ?x481 C)) (not (<= A_3 (+ A_1 ?x531 (* 2.0 C)))))))
 (let (($x926 (<= L_1 L_0)))
 (let (($x10204 (or $x926 $x1253 (= (+ A_4 ?x235) (+ A_1 ?x481 (* 3.0 C))) (<= (+ A_3 ?x315) (+ A_1 ?x481 ?x531 (* 2.0 C))))))
 (let (($x74 (= L_3 L_2)))
 (let (($x64 (= L_2 L_1)))
 (let (($x36 (>= L_0 L0)))
 (let (($x111 (>= S_1 S_0)))
 (let (($x114 (>= S_2 S_1)))
 (let (($x117 (>= S_3 S_2)))
 (let (($x123 (>= A_2 A_1)))
 (let (($x124 (>= A_3 A_2)))
 (and (<= (+ A_3 (* (- 1.0) L_3)) S_4) (<= ?x737 S_3) $x124 $x123 $x117 $x114 $x111 $x36 (or $x54 $x833) (or $x54 (not $x926)) (or $x54 (<= S_0 (+ ?x531 ?x481 A_1 ?x215))) (or (>= S_3 (+ A_1 ?x475 ?x531 C)) (not (= L_0 L_2))) (>= S_0 (+ ?x531 ?x481 A_1 ?x1102)) (<= (+ ?x531 ?x481 A_1 ?x215) ?x737) (>= S_3 (+ A_1 ?x481 ?x531 C)) (or $x64 $x926 (= L_2 (+ A_2 (* (- 1.0) A_1) L_1 ?x215))) (or (= L_4 L_3) (<= S_4 (+ A_4 ?x235 ?x531))) (>= S_2 ?x815) (>= S_1 (+ ?x531 ?x481 A_1 ?x215)) (or $x64 (not $x413)) (or (not (<= L_4 L_2)) $x1253) (not (<= (+ A_1 ?x481) S_3)) $x74 (or $x54 (<= S_2 (+ A_1 ?x481 ?x531 C))) (or $x54 $x413 (not (= L_1 L_2))) $x10204 (or $x54 (<= S_3 (+ A_1 ?x481 ?x531 (* 2.0 C)))) $x10168 (<= S_4 (+ A_4 ?x315)) (or $x54 (<= S_4 (+ A_1 ?x481 ?x531 (* 3.0 C)))) $x10211 (or $x64 (<= S_2 (+ A_2 ?x315 ?x531))) (or $x64 (<= S_0 ?x6541)) (or $x64 (<= S_1 (+ ?x531 ?x315 A_2 ?x215))) (>= S_3 (+ A_2 ?x315 ?x531)) (<= ?x6541 ?x737) (or (not (<= L_2 L_0)) $x538) (>= S_1 ?x6541) (>= S_0 (+ ?x531 ?x315 A_2 (* (- 3.0) C))) (>= S_2 (+ ?x531 ?x315 A_2 ?x215)) (<= (+ C (* (- 1.0) S_3) S_1) 0.0) (or $x1356 (>= S_3 (+ ?x531 ?x315 A_4 ?x1102))) $x10571 (<= (+ (* 2.0 C) (* (- 1.0) S_3) S_0) 0.0) (<= (+ ?x1102 L_0 (* (- 1.0) A_0) S_2) 0.0) (<= (+ ?x1102 (* (- 1.0) S_1) S_2) 0.0) $x6789 $x8246 $x10165 $x10336 $x10574 (or $x2299 $x4402 $x6898) (<= (+ (* (- 3.0) C) (* (- 1.0) S_0) S_2) 0.0) (<= S_4 (+ A_3 ?x481 C)) (<= (+ (* (- 4.0) C) L_0 (* (- 1.0) A_0) S_4) 0.0) (<= (+ (* (- 3.0) C) S_4 (* (- 1.0) S_2)) 0.0) (or $x1434 (>= S_1 (+ ?x531 ?x481 A_4 (* (- 4.0) C)))) (or (= L_4 L_3) (<= S_3 ?x6625)) $x10247 (<= (+ ?x531 ?x235 A_4 (* (- 4.0) C)) ?x737) (or $x2299 $x4402 (<= S_0 (+ ?x531 ?x235 A_4 (* (- 4.0) C))) $x6626) (or $x2299 $x4402 $x6626 $x6834) (or $x1434 (<= (+ A_4 (* (- 1.0) A_3) ?x215) B)) (>= S_3 (+ ?x531 ?x235 A_4 ?x1102)) (>= S_1 (+ ?x531 ?x235 A_4 (* (- 4.0) C))) $x10306 (or $x2299 $x4402 $x6626 (<= S_2 (+ ?x531 ?x235 A_4 ?x1102))) (>= S_0 (+ ?x531 ?x235 A_4 (* (- 5.0) C))) (>= S_2 (+ ?x531 ?x235 A_4 (* (- 3.0) C))) (<= (+ (* (- 3.0) C) L_0 (* (- 1.0) A_0) S_3) 0.0) (<= (+ ?x1102 S_3 (* (- 1.0) S_2)) 0.0) (<= (+ (* (- 4.0) C) S_3 (* (- 1.0) S_0)) 0.0) (<= (+ (* (- 5.0) C) S_4 (* (- 1.0) S_0)) 0.0) (<= (+ (* (- 3.0) C) S_3 (* (- 1.0) S_1)) 0.0) (<= (+ (* (- 4.0) C) S_4 (* (- 1.0) S_1)) 0.0) $x767 $x37 (<= (+ ?x215 L_0 (* (- 1.0) A_0) S_1) 0.0) (<= (+ L_0 (* (- 1.0) A_0) S_0) 0.0) (<= (+ C S_0 (* (- 1.0) S_2)) 0.0) (<= (+ ?x1102 S_1 (* (- 1.0) S_0)) 0.0) (<= (+ ?x1102 S_4 (* (- 1.0) S_3)) 0.0))))))))))))))))))))))))))))))))))))))))))))))))))))
(check-sat)
